Normalized Data/p03_7090_tsplib0_normalized_split0.vrp
NAME:p03_7090_tsplib0_NORMALIZED_split
BEST_KNOWN: 0
COMMENT: 0
DIMENSION: 657
CAPACITY: 100
EDGE_WEIGHT_FORMAT: FUNCTION
EDGE_WEIGHT_TYPE: EXACT_2D
NODE_COORD_SECTION
1 0.00000 0.00000
2 6 14
3 6 14
4 6 14
5 6 14
6 6 14
7 6 14
8 6 14
9 0 -18
10 0 -18
11 0 -18
12 0 -18
13 0 -18
14 0 -18
15 0 -18
16 20 10
17 20 10
18 20 10
19 20 10
20 20 10
21 20 10
22 20 10
23 20 10
24 20 -15
25 20 -15
26 20 -15
27 20 -15
28 20 -15
29 -20 -5
30 -20 -5
31 -20 -5
32 -20 -5
33 -20 -5
34 -20 -5
35 -20 -5
36 -20 -5
37 -10 -5
38 -10 -5
39 -10 -5
40 -10 -5
41 -10 -5
42 -10 -5
43 -10 -5
44 -15 15
45 -15 15
46 -15 15
47 -15 15
48 -15 15
49 -15 15
50 -15 15
51 -15 15
52 -15 15
53 -25 8
54 -25 8
55 -25 8
56 -25 8
57 -25 8
58 -25 8
59 20 25
60 20 25
61 20 25
62 20 25
63 20 25
64 20 25
65 20 25
66 20 25
67 -5 25
68 -5 25
69 -5 25
70 -5 25
71 -15 30
72 -15 30
73 -15 30
74 -15 30
75 -15 30
76 -15 30
77 15 0
78 15 0
79 15 0
80 15 0
81 15 0
82 15 0
83 15 0
84 -5 -10
85 -5 -10
86 -5 -10
87 -5 -10
88 -5 -10
89 -5 -10
90 -5 -10
91 -5 -10
92 -5 -10
93 -20 -25
94 -20 -25
95 -20 -25
96 -20 -25
97 -5 -30
98 -5 -30
99 -5 -30
100 -5 -30
101 -5 -30
102 -5 -30
103 -5 -30
104 -5 -30
105 -25 -15
106 -25 -15
107 -25 -15
108 -25 -15
109 -25 -15
110 -30 -5
111 -30 -5
112 -30 -5
113 -30 -5
114 -30 -5
115 -15 5
116 -15 5
117 -15 5
118 -15 5
119 -20 25
120 -20 25
121 -20 25
122 -20 25
123 -20 25
124 -20 25
125 -20 25
126 10 30
127 10 30
128 10 30
129 10 30
130 10 -15
131 10 -15
132 10 -15
133 10 -15
134 10 -15
135 10 -15
136 10 -25
137 10 -25
138 10 -25
139 10 -25
140 10 -25
141 10 -25
142 20 -30
143 20 -30
144 20 -30
145 20 -30
146 20 -30
147 20 -30
148 20 -30
149 30 0
150 30 0
151 30 0
152 30 0
153 30 0
154 30 -15
155 30 -15
156 30 -15
157 30 -15
158 30 -15
159 10 -5
160 10 -5
161 10 -5
162 10 -5
163 10 -5
164 10 -5
165 10 -5
166 10 -5
167 0 5
168 0 5
169 0 5
170 0 5
171 6 2
172 6 2
173 6 2
174 6 2
175 6 2
176 29 7
177 29 7
178 29 7
179 29 7
180 29 7
181 29 7
182 29 7
183 5 25
184 5 25
185 5 25
186 5 25
187 5 25
188 5 25
189 -4 17
190 -4 17
191 -4 17
192 -4 17
193 -4 17
194 -4 17
195 -4 17
196 0 34
197 0 34
198 0 34
199 0 34
200 0 34
201 0 34
202 18 17
203 18 17
204 18 17
205 18 17
206 18 17
207 18 17
208 30 20
209 30 20
210 30 20
211 30 20
212 30 20
213 30 20
214 30 20
215 30 20
216 28 30
217 28 30
218 28 30
219 28 30
220 28 30
221 28 30
222 -33 25
223 -33 25
224 -33 25
225 -33 25
226 -33 25
227 -33 25
228 -33 25
229 -33 25
230 -33 25
231 -15 -15
232 -15 -15
233 -15 -15
234 -15 -15
235 -15 -15
236 -30 -30
237 -30 -30
238 -30 -30
239 -30 -30
240 -30 -30
241 -30 -30
242 -30 -30
243 -30 -30
244 -30 -30
245 25 -23
246 25 -23
247 25 -23
248 25 -23
249 25 -23
250 25 -23
251 25 -23
252 25 -23
253 25 -23
254 5 -10
255 5 -10
256 5 -10
257 5 -10
258 5 -10
259 5 -10
260 7 -28
261 7 -28
262 7 -28
263 7 -28
264 7 -28
265 7 -28
266 7 -28
267 -11 -23
268 -11 -23
269 -11 -23
270 -11 -23
271 -11 -23
272 -12 -32
273 -12 -32
274 -12 -32
275 -12 -32
276 -12 -32
277 -12 -32
278 -24 -21
279 -24 -21
280 -24 -21
281 -24 -21
282 -24 -21
283 -24 -21
284 -24 -21
285 -29 3
286 -29 3
287 -29 3
288 -29 3
289 -29 3
290 -29 3
291 -29 3
292 -33 13
293 -33 13
294 -33 13
295 -33 13
296 -33 13
297 -27 21
298 -27 21
299 -27 21
300 -27 21
301 -27 21
302 -27 21
303 -27 21
304 -27 21
305 -27 21
306 -22 17
307 -22 17
308 -22 17
309 -22 17
310 -22 17
311 -22 17
312 -22 17
313 -22 17
314 -29 33
315 -29 33
316 -29 33
317 -29 33
318 -29 33
319 -29 33
320 12 12
321 12 12
322 12 12
323 12 12
324 12 12
325 12 12
326 14 23
327 14 23
328 14 23
329 14 23
330 14 23
331 14 23
332 14 23
333 -8 8
334 -8 8
335 -8 8
336 -8 8
337 -8 8
338 -8 8
339 -8 8
340 2 -4
341 2 -4
342 2 -4
343 2 -4
344 2 -4
345 22 -6
346 22 -6
347 22 -6
348 22 -6
349 22 -6
350 22 -6
351 22 -6
352 22 -6
353 28 -12
354 28 -12
355 28 -12
356 28 -12
357 28 -12
358 28 -12
359 28 -12
360 28 -12
361 18 -23
362 18 -23
363 18 -23
364 18 -23
365 18 -23
366 18 -23
367 18 -23
368 18 -23
369 -3 -23
370 -3 -23
371 -3 -23
372 -3 -23
373 -3 -23
374 -3 -23
375 1 -9
376 1 -9
377 1 -9
378 1 -9
379 1 -9
380 1 -9
381 1 -9
382 1 -9
383 -14 -11
384 -14 -11
385 -14 -11
386 -14 -11
387 -14 -11
388 -14 -11
389 -14 -11
390 -14 -11
391 -18 -1
392 -18 -1
393 -18 -1
394 -18 -1
395 -18 -1
396 -18 -1
397 -23 -11
398 -23 -11
399 -23 -11
400 -23 -11
401 -23 -11
402 -23 -11
403 -23 -11
404 -11 23
405 -11 23
406 -11 23
407 -11 23
408 -11 23
409 -8 34
410 -8 34
411 -8 34
412 -8 34
413 -8 34
414 -8 34
415 -20 42
416 -20 42
417 -20 42
418 -20 42
419 -20 42
420 27 42
421 27 42
422 27 42
423 27 42
424 27 42
425 27 42
426 27 42
427 14 38
428 14 38
429 14 38
430 14 38
431 14 38
432 14 38
433 14 38
434 14 38
435 14 38
436 32 -30
437 32 -30
438 32 -30
439 32 -30
440 32 -30
441 32 -30
442 32 -30
443 21 4
444 21 4
445 21 4
446 21 4
447 21 4
448 2 12
449 2 12
450 2 12
451 2 12
452 2 12
453 2 12
454 2 12
455 2 12
456 2 12
457 2 21
458 2 21
459 2 21
460 2 21
461 2 21
462 2 21
463 2 21
464 22 33
465 22 33
466 22 33
467 22 33
468 22 33
469 22 33
470 22 33
471 22 33
472 12 -19
473 12 -19
474 12 -19
475 12 -19
476 12 -19
477 12 -19
478 12 -19
479 9 -18
480 9 -18
481 9 -18
482 9 -18
483 9 -18
484 9 -18
485 11 -22
486 11 -22
487 11 -22
488 11 -22
489 11 -22
490 11 -22
491 11 -22
492 11 -22
493 11 -22
494 14 -24
495 14 -24
496 14 -24
497 14 -24
498 14 -24
499 14 7
500 14 7
501 14 7
502 14 7
503 14 7
504 14 7
505 18 8
506 18 8
507 18 8
508 18 8
509 18 8
510 26 17
511 26 17
512 26 17
513 26 17
514 26 17
515 26 17
516 26 17
517 26 17
518 22 13
519 22 13
520 22 13
521 22 13
522 22 13
523 21 2
524 21 2
525 21 2
526 21 2
527 21 2
528 21 2
529 20 19
530 20 19
531 20 19
532 20 19
533 20 19
534 20 19
535 20 19
536 -20 12
537 -20 12
538 -20 12
539 -20 12
540 -20 12
541 -21 2
542 -21 2
543 -21 2
544 -21 2
545 -21 2
546 -21 2
547 -21 2
548 -24 -4
549 -24 -4
550 -24 -4
551 -24 -4
552 -24 -4
553 -24 -4
554 -19 -13
555 -19 -13
556 -19 -13
557 -19 -13
558 -19 -13
559 -19 -13
560 -19 -13
561 -19 -13
562 -19 -13
563 -31 -17
564 -31 -17
565 -31 -17
566 -31 -17
567 -31 -17
568 -7 -17
569 -7 -17
570 -7 -17
571 -7 -17
572 -7 -17
573 -7 -17
574 -7 -17
575 -7 -17
576 -7 -17
577 -9 17
578 -9 17
579 -9 17
580 -9 17
581 -9 17
582 -9 17
583 -9 0
584 -9 0
585 -9 0
586 -9 0
587 -9 0
588 -9 0
589 -9 0
590 -4 32
591 -4 32
592 -4 32
593 -4 32
594 -4 32
595 -4 32
596 -20 -16
597 -20 -16
598 -20 -16
599 -20 -16
600 -20 -16
601 -20 -16
602 -13 -13
603 -13 -13
604 -13 -13
605 -13 -13
606 -13 -13
607 -17 -11
608 -17 -11
609 -17 -11
610 -17 -11
611 -17 -11
612 -17 -11
613 -17 -11
614 -9 -8
615 -9 -8
616 -9 -8
617 -9 -8
618 -9 -8
619 -9 -8
620 -9 -8
621 -9 -8
622 -10 -11
623 -10 -11
624 -10 -11
625 -10 -11
626 -10 -11
627 -10 -11
628 -10 -11
629 -13 -8
630 -13 -8
631 -13 -8
632 -13 -8
633 -13 -8
634 -10 -14
635 -10 -14
636 -10 -14
637 -10 -14
638 -10 -14
639 -16 -14
640 -16 -14
641 -16 -14
642 -16 -14
643 -16 -14
644 -16 -14
645 -16 -14
646 -16 -14
647 -15 -9
648 -15 -9
649 -15 -9
650 -15 -9
651 -15 -9
652 -17 -17
653 -17 -17
654 -17 -17
655 -17 -17
656 -17 -17
657 -17 -17
DEMAND_SECTION
1 0
2 20
3 20
4 20
5 20
6 5
7 1
8 1
9 20
10 20
11 20
12 10
13 5
14 1
15 1
16 20
17 20
18 20
19 10
20 1
21 1
22 1
23 1
24 20
25 20
26 20
27 20
28 1
29 20
30 20
31 20
32 20
33 5
34 1
35 1
36 1
37 20
38 20
39 20
40 20
41 5
42 1
43 1
44 20
45 20
46 20
47 10
48 5
49 1
50 1
51 1
52 1
53 20
54 20
55 20
56 10
57 1
58 1
59 20
60 20
61 20
62 10
63 1
64 1
65 1
66 1
67 20
68 20
69 20
70 10
71 20
72 20
73 20
74 20
75 5
76 1
77 20
78 20
79 20
80 10
81 5
82 1
83 1
84 20
85 20
86 20
87 10
88 5
89 1
90 1
91 1
92 1
93 20
94 20
95 20
96 20
97 20
98 20
99 20
100 20
101 1
102 1
103 1
104 1
105 20
106 20
107 20
108 10
109 5
110 20
111 20
112 20
113 10
114 1
115 20
116 20
117 20
118 20
119 20
120 20
121 20
122 20
123 5
124 1
125 1
126 20
127 20
128 20
129 20
130 20
131 20
132 20
133 10
134 1
135 1
136 20
137 20
138 20
139 20
140 1
141 1
142 20
143 20
144 20
145 20
146 1
147 1
148 1
149 20
150 20
151 20
152 20
153 1
154 20
155 20
156 20
157 20
158 5
159 20
160 20
161 20
162 20
163 1
164 1
165 1
166 1
167 20
168 20
169 20
170 10
171 20
172 20
173 20
174 20
175 5
176 20
177 20
178 20
179 10
180 1
181 1
182 1
183 20
184 20
185 20
186 10
187 1
188 1
189 20
190 20
191 20
192 20
193 5
194 1
195 1
196 20
197 20
198 20
199 20
200 5
201 1
202 20
203 20
204 20
205 20
206 5
207 1
208 20
209 20
210 20
211 10
212 1
213 1
214 1
215 1
216 20
217 20
218 20
219 20
220 5
221 1
222 20
223 20
224 20
225 10
226 5
227 1
228 1
229 1
230 1
231 20
232 20
233 20
234 20
235 5
236 20
237 20
238 20
239 10
240 5
241 1
242 1
243 1
244 1
245 20
246 20
247 20
248 10
249 5
250 1
251 1
252 1
253 1
254 20
255 20
256 20
257 20
258 5
259 1
260 20
261 20
262 20
263 10
264 1
265 1
266 1
267 20
268 20
269 20
270 10
271 1
272 20
273 20
274 20
275 20
276 1
277 1
278 20
279 20
280 20
281 20
282 1
283 1
284 1
285 20
286 20
287 20
288 20
289 5
290 1
291 1
292 20
293 20
294 20
295 10
296 5
297 20
298 20
299 20
300 10
301 5
302 1
303 1
304 1
305 1
306 20
307 20
308 20
309 10
310 5
311 1
312 1
313 1
314 20
315 20
316 20
317 20
318 5
319 1
320 20
321 20
322 20
323 20
324 1
325 1
326 20
327 20
328 20
329 20
330 1
331 1
332 1
333 20
334 20
335 20
336 20
337 1
338 1
339 1
340 20
341 20
342 20
343 10
344 1
345 20
346 20
347 20
348 20
349 5
350 1
351 1
352 1
353 20
354 20
355 20
356 20
357 1
358 1
359 1
360 1
361 20
362 20
363 20
364 20
365 1
366 1
367 1
368 1
369 20
370 20
371 20
372 10
373 5
374 1
375 20
376 20
377 20
378 20
379 1
380 1
381 1
382 1
383 20
384 20
385 20
386 10
387 5
388 1
389 1
390 1
391 20
392 20
393 20
394 10
395 5
396 1
397 20
398 20
399 20
400 20
401 5
402 1
403 1
404 20
405 20
406 20
407 10
408 5
409 20
410 20
411 20
412 10
413 5
414 1
415 20
416 20
417 20
418 10
419 5
420 20
421 20
422 20
423 10
424 5
425 1
426 1
427 20
428 20
429 20
430 10
431 5
432 1
433 1
434 1
435 1
436 20
437 20
438 20
439 20
440 5
441 1
442 1
443 20
444 20
445 20
446 10
447 1
448 20
449 20
450 20
451 20
452 5
453 1
454 1
455 1
456 1
457 20
458 20
459 20
460 20
461 5
462 1
463 1
464 20
465 20
466 20
467 20
468 5
469 1
470 1
471 1
472 20
473 20
474 20
475 20
476 5
477 1
478 1
479 20
480 20
481 20
482 20
483 5
484 1
485 20
486 20
487 20
488 20
489 5
490 1
491 1
492 1
493 1
494 20
495 20
496 20
497 10
498 1
499 20
500 20
501 20
502 10
503 5
504 1
505 20
506 20
507 20
508 20
509 1
510 20
511 20
512 20
513 20
514 1
515 1
516 1
517 1
518 20
519 20
520 20
521 20
522 1
523 20
524 20
525 20
526 20
527 5
528 1
529 20
530 20
531 20
532 20
533 1
534 1
535 1
536 20
537 20
538 20
539 10
540 5
541 20
542 20
543 20
544 20
545 1
546 1
547 1
548 20
549 20
550 20
551 20
552 1
553 1
554 20
555 20
556 20
557 20
558 5
559 1
560 1
561 1
562 1
563 20
564 20
565 20
566 20
567 5
568 20
569 20
570 20
571 20
572 5
573 1
574 1
575 1
576 1
577 20
578 20
579 20
580 20
581 5
582 1
583 20
584 20
585 20
586 20
587 5
588 1
589 1
590 20
591 20
592 20
593 10
594 1
595 1
596 20
597 20
598 20
599 20
600 5
601 1
602 20
603 20
604 20
605 20
606 1
607 20
608 20
609 20
610 10
611 1
612 1
613 1
614 20
615 20
616 20
617 20
618 5
619 1
620 1
621 1
622 20
623 20
624 20
625 20
626 1
627 1
628 1
629 20
630 20
631 20
632 20
633 5
634 20
635 20
636 20
637 20
638 5
639 20
640 20
641 20
642 10
643 5
644 1
645 1
646 1
647 20
648 20
649 20
650 20
651 5
652 20
653 20
654 20
655 10
656 1
657 1
DEPOT_SECTION
1
-1
EOF