Normalized Data/p03_7090_tsplib0_normalized_split0.sol
656 -4 2 3 1 6 7 5 -13 11 12 103 101 102 96 97 99 98 100 -20 16 19 21 18 17 22 15 505 508 -23 154 153 156 155 -25 24 26 27 366 365 497 495 496 488 -29 30 28 35 32 34 33 31 -40 37 36 41 38 39 42 -45 46 43 44 335 338 337 336 -51 49 47 50 48 121 120 119 122 123 124 118 -54 52 55 57 56 53 117 -58 60 59 328 325 -63 64 62 61 65 220 218 217 216 215 219 -66 68 67 589 590 -69 196 199 200 197 198 195 -76 442 446 443 445 444 -77 80 525 524 523 -78 347 345 346 344 -79 81 82 152 151 149 150 148 -84 635 634 633 636 -85 87 89 90 88 616 615 618 619 620 617 614 -91 83 86 622 621 623 627 626 625 -93 94 95 92 230 -114 535 536 539 537 538 -116 115 542 543 540 -127 126 125 128 326 -129 473 474 472 471 -131 130 480 481 339 -133 134 132 364 367 360 249 246 244 245 248 -137 140 138 136 483 482 479 258 257 343 -145 144 143 146 147 141 142 477 476 475 342 -157 358 352 359 354 357 353 355 356 350 348 351 349 -163 158 159 165 160 162 161 164 -166 447 448 449 450 -168 167 332 333 334 -169 458 462 460 459 461 456 457 455 453 -170 172 173 174 171 -181 175 180 179 177 178 176 526 522 527 -188 579 577 578 576 -189 191 403 405 404 -190 186 184 182 187 185 183 451 454 452 -192 194 193 408 413 410 409 591 594 593 592 -201 204 512 511 510 -202 203 528 531 529 -205 206 532 533 530 534 470 468 464 465 463 467 -226 222 227 228 225 221 224 223 229 307 -231 232 652 651 653 -234 654 656 655 282 280 279 283 281 278 277 -241 236 243 238 242 235 240 237 239 233 605 -252 250 251 247 436 435 437 441 439 440 438 -255 253 256 254 340 -267 266 268 368 369 -270 269 272 274 271 273 276 275 -292 294 293 295 291 306 309 -302 297 299 296 298 301 303 300 304 305 -310 311 308 312 317 316 318 314 313 315 -320 323 324 319 322 321 501 503 502 -329 330 420 425 422 419 421 424 423 466 469 -331 327 429 427 426 434 428 432 430 431 433 -341 377 376 375 374 -362 361 363 493 494 -372 373 370 371 8 14 10 9 380 379 -381 378 261 265 262 259 264 263 260 139 135 490 491 489 492 -382 640 643 642 641 638 639 -386 611 612 610 564 562 566 565 563 402 400 401 -389 388 387 383 384 385 648 647 650 -391 550 549 548 547 -392 390 396 398 397 -393 285 290 287 284 286 288 289 544 545 546 -395 394 551 552 110 111 113 109 112 541 -399 108 104 106 107 105 560 558 559 561 -406 418 417 415 414 416 411 412 -407 74 75 73 70 72 71 581 580 -478 487 485 486 484 -498 518 519 520 517 -499 500 507 504 506 -516 515 514 513 509 209 212 208 213 210 211 214 207 521 -556 553 554 555 606 -557 600 599 595 598 597 596 645 644 637 -568 570 574 573 571 567 569 572 575 -583 584 582 585 586 587 588 -603 604 601 602 624 -607 609 608 649 646 632 -613 628 629 631 630 0 





OBJ=
4476.020
BEST_KNOWN=
0.000